NAME : st70.tour
COMMENT : Optimum tour for st70.tsp (Length 675)
TYPE : TOUR
DIMENSION : 70
TOUR_SECTION  
39
61
40
9
17
43
41
6
53
5
10
52
60
12
21
34
33
62
54
67
48
11
64
65
56
51
50
58
37
47
16
23
1
36
29
13
70
35
69
31
38
59
22
66
63
57
15
24
19
7
2
4
18
42
32
3
8
26
55
49
28
14
20
30
44
68
27
46
45
25
-1
EOF
